clingo version 5.7.1
Reading from stdin
Solving...
SATISFIABLE

Models       : 178981952
Calls        : 1
Time         : 2265.744s (Solving: 2265.48s 1st Model: 0.00s Unsat: 0.00s)
CPU Time     : 2265.632s
